1 -1 -2 0
1 -1 -3 0
1 -1 4 0
1 -2 -5 0
1 -2 -6 0
1 -2 -1 0
1 -2 -7 0
1 -2 4 0
1 -8 9 0
1 -8 -10 0
1 -8 11 0
1 -8 -12 0
1 8 6 0
1 8 -13 0
1 -8 -14 0
1 8 7 0
1 8 -4 0
1 -11 -9 0
1 11 10 0
1 11 -15 0
1 11 12 0
1 -11 6 0
1 11 13 0
1 -11 -16 0
1 11 -8 0
1 -11 -7 0
1 11 4 0
1 6 17 0
1 6 -18 0
1 -6 2 0
1 6 -19 0
1 6 -20 0
1 -6 -21 0
1 -6 22 0
1 -6 8 0
1 -6 1 0
1 -6 4 0
1 4 -23 0
1 4 17 0
1 -4 18 0
1 -4 -11 0
1 -4 -2 0
1 4 -6 0
1 4 20 0
1 -4 22 0
1 4 -8 0
1 -4 -1 0
1 -12 17 0
1 -12 -24 0
1 12 -25 0
1 -12 11 0
1 -12 2 0
1 12 -20 0
1 -12 -26 0
1 12 -8 0
1 7 -24 0
1 7 -25 0
1 -7 -11 0
1 -7 2 0
1 -7 -27 0
1 7 -26 0
1 -7 -8 0
1 7 -28 0
1 -22 -9 0
1 22 -10 0
1 -22 18 0
1 -22 6 0
1 22 13 0
1 -22 16 0
1 22 26 0
1 22 4 0
1 18 9 0
1 -18 10 0
1 18 6 0
1 18 -13 0
1 18 16 0
1 18 -22 0
1 -18 4 0
1 21 -9 0
1 -21 10 0
1 21 -29 0
1 -21 30 0
1 21 -6 0
1 -21 13 0
1 -21 -16 0
1 -21 31 0
1 -21 32 0
1 21 4 0
1 29 9 0
1 -29 -10 0
1 29 33 0
1 29 24 0
1 29 30 0
1 -29 -6 0
1 -29 -13 0
1 29 -16 0
1 -29 31 0
1 -29 -32 0
1 -29 4 0
1 -16 34 0
1 16 -10 0
1 16 -29 0
1 -16 18 0
1 16 11 0
1 -16 -35 0
1 16 -36 0
1 -16 37 0
1 -16 38 0
1 16 22 0
1 -16 -39 0
1 -10 40 0
1 -10 41 0
1 10 29 0
1 10 -11 0
1 10 -35 0
1 -10 36 0
1 10 -37 0
1 -10 -16 0
1 -10 21 0
1 10 22 0
1 10 -8 0
1 -10 39 0
1 -13 42 0
1 13 17 0
1 13 29 0
1 -13 -18 0
1 -13 -11 0
1 13 -35 0
1 13 -43 0
1 -13 44 0
1 13 20 0
1 13 -21 0
1 -13 -22 0
1 13 8 0
1 13 -39 0
1 -9 -42 0
1 -9 45 0
1 -9 17 0
1 9 -29 0
1 -9 18 0
1 9 -11 0
1 -9 -35 0
1 9 20 0
1 9 21 0
1 -9 22 0
1 9 8 0
1 9 39 0
1 -37 -34 0
1 37 -10 0
1 37 33 0
1 37 -20 0
1 -37 31 0
1 37 32 0
1 -34 10 0
1 34 -17 0
1 34 33 0
1 34 -30 0
1 -34 16 0
1 34 -31 0
1 34 32 0
1 -36 -10 0
1 36 33 0
1 -36 -30 0
1 36 -43 0
1 36 16 0
1 36 -31 0
1 -36 -32 0
1 -40 -42 0
1 40 10 0
1 -40 -30 0
1 -40 -16 0
1 40 -31 0
1 40 -32 0
1 -32 34 0
1 32 -29 0
1 32 -30 0
1 32 46 0
1 32 -36 0
1 -32 37 0
1 32 21 0
1 -32 47 0
1 32 -48 0
1 -30 49 0
1 30 -36 0
1 30 37 0
1 -30 -21 0
1 -30 -32 0
1 -30 48 0
1 -31 40 0
1 -31 -34 0
1 -31 29 0
1 -31 46 0
1 -31 -35 0
1 31 -36 0
1 31 -37 0
1 31 21 0
1 -31 -50 0
1 31 48 0
1 -33 -40 0
1 33 -34 0
1 -33 29 0
1 -33 -51 0
1 33 -46 0
1 -33 35 0
1 33 31 0
1 33 -52 0
1 -3 53 0
1 3 -54 0
1 -3 5 0
1 3 -55 0
1 -3 -1 0
1 5 54 0
1 5 -2 0
1 -5 56 0
1 5 -55 0
1 5 -3 0
1 14 53 0
1 -14 -54 0
1 -14 57 0
1 -14 58 0
1 -14 15 0
1 -14 55 0
1 -14 59 0
1 14 -8 0
1 15 -53 0
1 -15 -54 0
1 -15 57 0
1 15 -58 0
1 15 11 0
1 15 56 0
1 15 -55 0
1 -15 59 0
1 -15 60 0
1 -15 -14 0
1 54 61 0
1 -54 -15 0
1 54 -5 0
1 -54 -27 0
1 54 26 0
1 -54 -14 0
1 54 3 0
1 55 -54 0
1 55 24 0
1 -55 -25 0
1 55 -5 0
1 55 -62 0
1 -55 -27 0
1 55 -26 0
1 -53 15 0
1 -53 5 0
1 53 -56 0
1 -53 -14 0
1 53 -3 0
1 56 53 0
1 56 15 0
1 56 5 0
1 56 63 0
1 -56 -14 0
1 56 -3 0
1 26 54 0
1 -26 57 0
1 -26 25 0
1 -26 -58 0
1 -26 55 0
1 -26 -59 0
1 26 60 0
1 -26 22 0
1 26 7 0
1 -25 54 0
1 -25 -57 0
1 -25 58 0
1 -25 -12 0
1 25 55 0
1 -25 -59 0
1 -25 -26 0
1 27 -54 0
1 -27 -24 0
1 27 -57 0
1 27 -58 0
1 27 64 0
1 -27 65 0
1 27 -12 0
1 27 55 0
1 -27 59 0
1 -27 60 0
1 27 66 0
1 27 -7 0
1 24 -60 0
1 -24 54 0
1 24 -29 0
1 -24 -57 0
1 24 58 0
1 24 -64 0
1 -24 12 0
1 -24 -55 0
1 -24 59 0
1 -24 -67 0
1 -24 66 0
1 -24 -7 0
1 58 68 0
1 58 -60 0
1 58 -42 0
1 -58 -17 0
1 -58 24 0
1 -58 25 0
1 -58 -69 0
1 -58 -15 0
1 -58 -70 0
1 58 -20 0
1 58 27 0
1 58 -26 0
1 58 14 0
1 -60 68 0
1 -60 -42 0
1 60 -17 0
1 60 24 0
1 -60 25 0
1 -60 -70 0
1 -60 20 0
1 -60 27 0
1 -60 -26 0
1 60 14 0
1 57 68 0
1 57 -24 0
1 -57 -71 0
1 57 -25 0
1 57 -15 0
1 57 -59 0
1 57 -26 0
1 -57 -14 0
1 -59 68 0
1 59 -24 0
1 59 -57 0
1 59 25 0
1 -59 15 0
1 -59 -70 0
1 59 27 0
1 -59 -72 0
1 59 26 0
1 -59 14 0
1 20 -9 0
1 -20 -17 0
1 20 -58 0
1 20 -64 0
1 -20 65 0
1 -20 12 0
1 20 6 0
1 20 -67 0
1 -20 -66 0
1 -20 -7 0
1 -20 -4 0
1 -17 -9 0
1 -17 -34 0
1 17 -58 0
1 -17 64 0
1 -17 -6 0
1 17 -20 0
1 -17 -67 0
1 -43 23 0
1 43 -58 0
1 -43 -64 0
1 43 65 0
1 -43 -73 0
1 -43 -19 0
1 -43 13 0
1 -43 -36 0
1 43 -60 0
1 43 -67 0
1 43 66 0
1 -43 -28 0
1 -42 23 0
1 42 -40 0
1 -42 -9 0
1 -42 -64 0
1 -42 -65 0
1 -42 73 0
1 42 19 0
1 -42 -13 0
1 -42 -43 0
1 42 60 0
1 42 -67 0
1 -42 66 0
1 -42 28 0
1 65 42 0
1 -65 17 0
1 65 24 0
1 65 74 0
1 -65 75 0
1 -65 76 0
1 -65 43 0
1 65 27 0
1 65 66 0
1 65 -77 0
1 -66 42 0
1 66 -17 0
1 -66 -24 0
1 -66 65 0
1 -66 -74 0
1 66 75 0
1 -66 35 0
1 66 78 0
1 66 43 0
1 66 -20 0
1 66 27 0
1 -66 -77 0
1 66 -52 0
1 -66 -39 0
1 -64 68 0
1 64 -24 0
1 -64 79 0
1 64 80 0
1 64 20 0
1 64 -27 0
1 64 67 0
1 64 -77 0
1 64 -81 0
1 -67 42 0
1 -67 -24 0
1 67 64 0
1 -67 74 0
1 -67 80 0
1 67 70 0
1 67 20 0
1 -67 -27 0
1 67 -82 0
1 -67 77 0
1 67 81 0
1 35 23 0
1 35 -9 0
1 -35 10 0
1 -35 33 0
1 -35 -65 0
1 -35 -73 0
1 35 -13 0
1 -35 -19 0
1 -35 -16 0
1 -35 -31 0
1 -35 28 0
1 -39 -68 0
1 -39 -9 0
1 39 10 0
1 -39 -65 0
1 39 35 0
1 39 -19 0
1 -39 13 0
1 -39 -16 0
1 39 -31 0
1 39 66 0
1 -39 28 0
1 -75 -23 0
1 75 -45 0
1 -75 -41 0
1 75 33 0
1 -75 65 0
1 75 -73 0
1 -75 19 0
1 -75 44 0
1 -75 31 0
1 75 -66 0
1 -75 -52 0
1 75 28 0
1 -52 -23 0
1 52 -41 0
1 -52 -33 0
1 52 -65 0
1 52 73 0
1 52 44 0
1 -52 -38 0
1 -52 31 0
1 -52 -28 0
1 52 -81 0
1 -19 -23 0
1 -19 83 0
1 -19 46 0
1 -19 75 0
1 -19 -6 0
1 19 -84 0
1 -19 -85 0
1 19 -39 0
1 23 42 0
1 -23 86 0
1 23 83 0
1 23 -46 0
1 23 75 0
1 23 35 0
1 23 -19 0
1 -23 4 0
1 -23 85 0
1 23 -48 0
1 23 52 0
1 -23 39 0
1 73 -86 0
1 73 87 0
1 -73 74 0
1 -73 75 0
1 -73 -35 0
1 -73 43 0
1 -73 -84 0
1 -73 88 0
1 -73 52 0
1 -73 -28 0
1 -73 -39 0
1 28 42 0
1 -28 -86 0
1 28 87 0
1 28 74 0
1 -28 75 0
1 -28 73 0
1 -28 -35 0
1 28 43 0
1 28 7 0
1 28 -88 0
1 28 -77 0
1 28 52 0
1 28 39 0
1 46 -23 0
1 46 -41 0
1 46 74 0
1 46 19 0
1 -46 44 0
1 -46 38 0
1 -46 -31 0
1 46 32 0
1 46 -48 0
1 -48 45 0
1 -48 41 0
1 48 -33 0
1 -48 30 0
1 -48 -46 0
1 -48 44 0
1 48 -38 0
1 -48 31 0
1 -48 77 0
1 83 23 0
1 83 45 0
1 -83 -41 0
1 83 -51 0
1 83 -85 0
1 83 87 0
1 -83 -19 0
1 83 44 0
1 -83 38 0
1 -83 50 0
1 85 -45 0
1 85 -41 0
1 85 51 0
1 -85 49 0
1 -85 19 0
1 -85 44 0
1 85 38 0
1 -85 -50 0
1 -38 83 0
1 -38 46 0
1 -38 75 0
1 38 16 0
1 38 -89 0
1 38 85 0
1 38 -48 0
1 38 -52 0
1 -41 -10 0
1 -41 -90 0
1 41 -91 0
1 41 83 0
1 -41 46 0
1 41 -75 0
1 -41 -92 0
1 41 -38 0
1 41 -85 0
1 -41 48 0
1 -44 45 0
1 44 86 0
1 -44 83 0
1 44 75 0
1 -44 -13 0
1 44 93 0
1 -44 84 0
1 44 48 0
1 -44 52 0
1 -45 9 0
1 -45 94 0
1 -45 86 0
1 45 83 0
1 -45 -46 0
1 45 75 0
1 45 -44 0
1 -45 -93 0
1 45 85 0
1 -45 48 0
1 45 52 0
1 91 41 0
1 91 -51 0
1 91 -86 0
1 91 50 0
1 91 -38 0
1 -91 -89 0
1 -89 41 0
1 89 -51 0
1 -89 -91 0
1 89 -49 0
1 -89 38 0
1 -89 -50 0
1 89 47 0
1 90 41 0
1 90 51 0
1 -90 -94 0
1 90 -49 0
1 -90 38 0
1 90 50 0
1 -90 47 0
1 92 -41 0
1 92 -90 0
1 -92 -51 0
1 -92 49 0
1 -92 38 0
1 92 -93 0
1 92 50 0
1 -47 -90 0
1 -47 -49 0
1 -47 -83 0
1 47 -92 0
1 47 -32 0
1 47 -85 0
1 -49 -90 0
1 -49 91 0
1 -49 -83 0
1 49 -92 0
1 -49 -89 0
1 49 85 0
1 -50 -90 0
1 50 -91 0
1 50 83 0
1 -50 -92 0
1 50 -89 0
1 50 85 0
1 -51 33 0
1 51 -90 0
1 -51 91 0
1 -51 -83 0
1 51 50 0
1 -51 -92 0
1 51 -89 0
1 51 -85 0
1 70 -61 0
1 -70 -58 0
1 -70 64 0
1 -70 35 0
1 -70 62 0
1 70 60 0
1 70 -67 0
1 -68 95 0
1 68 61 0
1 68 57 0
1 -68 58 0
1 68 -70 0
1 68 -63 0
1 -68 62 0
1 -68 59 0
1 -68 -60 0
1 -68 67 0
1 -68 -39 0
1 -80 -95 0
1 80 61 0
1 80 -71 0
1 -80 64 0
1 -80 -75 0
1 80 -62 0
1 -80 -96 0
1 -80 67 0
1 -80 -81 0
1 -81 95 0
1 -81 61 0
1 -81 -71 0
1 81 -69 0
1 -81 64 0
1 81 80 0
1 81 -63 0
1 81 62 0
1 -81 -96 0
1 -81 67 0
1 81 -52 0
1 61 54 0
1 -61 87 0
1 61 74 0
1 -61 -80 0
1 61 62 0
1 -61 88 0
1 61 -77 0
1 61 -81 0
1 62 -68 0
1 -62 61 0
1 -62 -87 0
1 -62 80 0
1 62 -70 0
1 62 55 0
1 62 77 0
1 62 81 0
1 -95 68 0
1 -95 53 0
1 -95 80 0
1 -95 70 0
1 -95 -81 0
1 -63 -68 0
1 63 95 0
1 -63 80 0
1 63 70 0
1 -63 81 0
1 -74 -61 0
1 74 71 0
1 -74 69 0
1 74 -64 0
1 74 -65 0
1 74 73 0
1 -74 62 0
1 -74 72 0
1 -74 96 0
1 -74 -67 0
1 74 -77 0
1 74 -28 0
1 77 61 0
1 -77 69 0
1 77 64 0
1 77 -66 0
1 77 74 0
1 77 62 0
1 77 -72 0
1 -77 96 0
1 77 67 0
1 -77 -28 0
1 87 61 0
1 87 82 0
1 87 -71 0
1 -87 69 0
1 87 79 0
1 87 -62 0
1 87 -72 0
1 87 88 0
1 -87 78 0
1 87 28 0
1 -88 71 0
1 88 69 0
1 -88 -87 0
1 -88 -79 0
1 88 76 0
1 -88 73 0
1 -88 -62 0
1 -88 -72 0
1 88 85 0
1 -88 -82 0
1 -88 -78 0
1 69 -96 0
1 -69 58 0
1 -69 86 0
1 69 -87 0
1 -69 -74 0
1 -69 -80 0
1 69 93 0
1 -69 84 0
1 -69 88 0
1 -69 77 0
1 96 -86 0
1 -96 -69 0
1 -96 87 0
1 -96 93 0
1 96 60 0
1 -96 -88 0
1 -96 77 0
1 96 81 0
1 -71 -87 0
1 -71 -74 0
1 -71 -80 0
1 -71 -72 0
1 -71 -88 0
1 -71 -81 0
1 72 71 0
1 72 -87 0
1 -72 74 0
1 -72 -80 0
1 72 59 0
1 72 -88 0
1 -86 23 0
1 86 45 0
1 -86 -96 0
1 86 91 0
1 86 69 0
1 -86 79 0
1 -86 76 0
1 -86 -73 0
1 86 19 0
1 -86 -44 0
1 -86 82 0
1 -86 -78 0
1 86 -28 0
1 84 23 0
1 -84 79 0
1 -84 76 0
1 -84 73 0
1 -84 -19 0
1 -84 -44 0
1 -84 -89 0
1 84 -82 0
1 -84 -78 0
1 84 -28 0
1 94 45 0
1 94 -90 0
1 -94 -69 0
1 94 79 0
1 94 -44 0
1 -94 96 0
1 94 -82 0
1 -94 78 0
1 93 45 0
1 93 94 0
1 93 -69 0
1 93 -79 0
1 93 76 0
1 -93 44 0
1 93 92 0
1 -93 96 0
1 93 82 0
1 -93 78 0
1 76 -94 0
1 76 -87 0
1 76 -65 0
1 -76 -93 0
1 -76 84 0
1 -76 88 0
1 -76 -78 0
1 -78 94 0
1 -78 86 0
1 78 76 0
1 78 93 0
1 78 84 0
1 -78 -88 0
1 78 66 0
1 -79 -94 0
1 79 -82 0
1 -79 -86 0
1 -79 -64 0
1 79 87 0
1 -79 84 0
1 79 -88 0
1 82 94 0
1 -82 87 0
1 82 -79 0
1 -82 93 0
1 -82 84 0
1 -82 -67 0
1 82 -88 0
